\ SCIP STATISTICS
\   Problem name     : CapacitatedFacilityLocation-20-10
\   Variables        : 210 (210 binary, 0 integer, 0 implicit integer, 0 continuous)
\   Constraints      : 231
Minimize
 Obj: +1116.44990452166 x0 +1253.12627306106 x1 +1078.71080138763 x2 +873.599901185765 x3 +758.84373304211 x4
      +1316.81229026844 x5 +1115.33312155864 x6 +1305.38764333305 x7 +1201 x8 +1234.58595060509 x9 +54.5308874482961 x10
      +85.6982162174288 x11 +112.379675229934 x12 +43.6037296324887 x13 +87.2132816930455 x14 +29.4076799242143 x15
      +79.2305637218674 x16 +39.3124182623176 x17 +109.06499399514 x18 +80.6273627738227 x19 +70.3029454062144 x20
      +219.726683048963 x21 +142.957347286836 x22 +88.4335642644176 x23 +82.7736670340422 x24 +114.265190604627 x25
      +33.7286240224334 x26 +91.1322066581628 x27 +115.30402994179 x28 +31.4851582052633 x29 +19.0834702103815 x30
      +61.7904695250441 x31 +39.7435289529467 x32 +24.449706760093 x33 +15.1707488527141 x34 +33.6349622558502 x35
      +22.9863538196697 x36 +35.7327866770842 x37 +33.8281761129724 x38 +24.1041719081217 x39 +18.038974198681 x40
      +26.8537904973573 x41 +35.3324111037377 x42 +14.8477494990432 x43 +25.9143142002162 x44 +12.570770913373 x45
      +28.6306285587577 x46 +20.4450917044728 x47 +35.0781467314783 x48 +29.4095260475896 x49 +66.6966050888191 x50
      +65.1636728796999 x51 +11.642301279864 x52 +71.7776998252464 x53 +35.1665791515134 x54 +79.4049433743652 x55
      +63.6329841138371 x56 +86.000056893517 x57 +24.539281340511 x58 +64.2765433643459 x59 +51.6364103581613 x60
      +65.106403941824 x61 +20.941768616513 x62 +56.947007490746 x63 +22.2124093285258 x64 +65.2899433894154 x65
      +49.872732139801 x66 +71.0754697997858 x67 +23.0247801005039 x68 +50.6702893687221 x69 +54.175871566215 x70
      +51.7727775102413 x71 +85.1139910022272 x72 +46.6854267736964 x73 +68.4164021606763 x74 +39.5772639703357 x75
      +78.0944044997381 x76 +59.0094970250664 x77 +87.1688609012677 x78 +79.8986066204127 x79 +80.4994092121701 x80
      +125.840013226147 x81 +57.5023429233156 x82 +90.5910181228265 x83 +32.8139498939274 x84 +107.290950821947 x85
      +80.9966265409644 x86 +117.623333891042 x87 +53.5228310979419 x88 +82.8520839327622 x89 +160.666324793243 x90
      +178.499049425803 x91 +34.3300449318808 x92 +175.325928193512 x93 +88.9283256546454 x94 +195.107510260287 x95
      +138.10197994263 x96 +200.503394404327 x97 +43.7572032598986 x98 +138.132842292473 x99 +62.6524546438041 x100
      +259.302134886227 x101 +259.465477515587 x102 +35.6044155695199 x103 +170.014222521186 x104 +33.2774878762162 x105
      +131.289590963875 x106 +18.3446577117022 x107 +238.543571494134 x108 +135.139364538621 x109 +221.108046507416 x110
      +219.722288438322 x111 +33.6846647738793 x112 +238.487509812348 x113 +125.214831824173 x114 +262.472766782434 x115
      +198.910805038738 x116 +275.202040269831 x117 +69.0678199269987 x118 +199.605229220431 x119 +77.1898012652223 x120
      +204.837511353774 x121 +105.866703904111 x122 +98.1609768471013 x123 +48.9382362557042 x124 +125.910944044064 x125
      +31.5911439843919 x126 +112.541220188701 x127 +75.8855259703365 x128 +29.6677148394663 x129 +153.807739655508 x130
      +195.887459831715 x131 +42.6988728816026 x132 +170.901140349651 x133 +78.5939133471955 x134 +193.79136063043 x135
      +125.145201436779 x136 +195.706994289318 x137 +32.1092480620704 x138 +124.832425154913 x139 +76.2968280832892 x140
      +11.2421299873396 x141 +65.1551253928992 x142 +73.264773345773 x143 +72.1169046973052 x144 +69.6032419280287 x145
      +87.2130368525754 x146 +82.0038257853428 x147 +74.0626755003306 x148 +88.2344728148399 x149 +48.5988357328728 x150
      +58.0417699323367 x151 +19.053235141678 x152 +53.1790166654749 x153 +22.3100588291439 x154 +60.468757248334 x155
      +47.5483779325961 x156 +66.2061801658504 x157 +22.3563787240393 x158 +48.2984206912991 x159 +157.957395679535 x160
      +24.2708167970946 x161 +145.011451699503 x162 +150.118625968537 x163 +154.683975683365 x164 +140.42310236632 x165
      +183.648166548667 x166 +167.348636080286 x167 +162.135298259654 x168 +185.893966386814 x169 +286.570364407424 x170
      +60.5268868773196 x171 +225.688555726031 x172 +278.334834614446 x173 +261.325480368372 x174 +268.570683169378 x175
      +320.230058275944 x176 +311.19187540758 x177 +260.919140391547 x178 +323.663583522839 x179 +45.9629188379766 x180
      +149.766133914337 x181 +100.471901778647 x182 +57.7996070696999 x183 +58.7173517332876 x184 +75.0856504514718 x185
      +23.9994632938775 x186 +58.5209200843969 x187 +81.9920338983269 x188 +22.7510463412691 x189 +31.0872980765832 x190
      +17.0816299696428 x191 +15.3204394866137 x192 +31.6985362440899 x193 +22.2813925462281 x194 +32.9844408959578 x195
      +33.1370599517301 x196 +37.6701613388074 x197 +20.7350704394432 x198 +33.5591538943647 x199 +51.1296973681627 x200
      +68.1176077649224 x201 +13.3471459877913 x202 +57.2972869698414 x203 +19.0786794812158 x204 +66.226279751341 x205
      +45.2053409729324 x206 +69.7816043714444 x207 +12.0069728475641 x208 +45.6765264806495 x209
Subject to
 c0: +1 x10 +1 x11 +1 x12 +1 x13 +1 x14 +1 x15 +1 x16 +1 x17 +1 x18 +1 x19 >= +1
 c1: +1 x20 +1 x21 +1 x22 +1 x23 +1 x24 +1 x25 +1 x26 +1 x27 +1 x28 +1 x29 >= +1
 c2: +1 x30 +1 x31 +1 x32 +1 x33 +1 x34 +1 x35 +1 x36 +1 x37 +1 x38 +1 x39 >= +1
 c3: +1 x40 +1 x41 +1 x42 +1 x43 +1 x44 +1 x45 +1 x46 +1 x47 +1 x48 +1 x49 >= +1
 c4: +1 x50 +1 x51 +1 x52 +1 x53 +1 x54 +1 x55 +1 x56 +1 x57 +1 x58 +1 x59 >= +1
 c5: +1 x60 +1 x61 +1 x62 +1 x63 +1 x64 +1 x65 +1 x66 +1 x67 +1 x68 +1 x69 >= +1
 c6: +1 x70 +1 x71 +1 x72 +1 x73 +1 x74 +1 x75 +1 x76 +1 x77 +1 x78 +1 x79 >= +1
 c7: +1 x80 +1 x81 +1 x82 +1 x83 +1 x84 +1 x85 +1 x86 +1 x87 +1 x88 +1 x89 >= +1
 c8: +1 x90 +1 x91 +1 x92 +1 x93 +1 x94 +1 x95 +1 x96 +1 x97 +1 x98 +1 x99 >= +1
 c9: +1 x100 +1 x101 +1 x102 +1 x103 +1 x104 +1 x105 +1 x106 +1 x107 +1 x108 +1 x109 >= +1
 c10: +1 x110 +1 x111 +1 x112 +1 x113 +1 x114 +1 x115 +1 x116 +1 x117 +1 x118 +1 x119 >= +1
 c11: +1 x120 +1 x121 +1 x122 +1 x123 +1 x124 +1 x125 +1 x126 +1 x127 +1 x128 +1 x129 >= +1
 c12: +1 x130 +1 x131 +1 x132 +1 x133 +1 x134 +1 x135 +1 x136 +1 x137 +1 x138 +1 x139 >= +1
 c13: +1 x140 +1 x141 +1 x142 +1 x143 +1 x144 +1 x145 +1 x146 +1 x147 +1 x148 +1 x149 >= +1
 c14: +1 x150 +1 x151 +1 x152 +1 x153 +1 x154 +1 x155 +1 x156 +1 x157 +1 x158 +1 x159 >= +1
 c15: +1 x160 +1 x161 +1 x162 +1 x163 +1 x164 +1 x165 +1 x166 +1 x167 +1 x168 +1 x169 >= +1
 c16: +1 x170 +1 x171 +1 x172 +1 x173 +1 x174 +1 x175 +1 x176 +1 x177 +1 x178 +1 x179 >= +1
 c17: +1 x180 +1 x181 +1 x182 +1 x183 +1 x184 +1 x185 +1 x186 +1 x187 +1 x188 +1 x189 >= +1
 c18: +1 x190 +1 x191 +1 x192 +1 x193 +1 x194 +1 x195 +1 x196 +1 x197 +1 x198 +1 x199 >= +1
 c19: +1 x200 +1 x201 +1 x202 +1 x203 +1 x204 +1 x205 +1 x206 +1 x207 +1 x208 +1 x209 >= +1
 c20: +12 x10 +22 x20 +10 x30 +6 x40 +12 x50 +12 x60 +14 x70 +23 x80 +23 x90 +35 x100 +32 x110 +23 x120
  +24 x130 +9 x140 +11 x150 +19 x160 +32 x170 +15 x180 +5 x190 +11 x200 -177 x0 <= +0
 c21: +12 x11 +22 x21 +10 x31 +6 x41 +12 x51 +12 x61 +14 x71 +23 x81 +23 x91 +35 x101 +32 x111 +23 x121
  +24 x131 +9 x141 +11 x151 +19 x161 +32 x171 +15 x181 +5 x191 +11 x201 -201 x1 <= +0
 c22: +12 x12 +22 x22 +10 x32 +6 x42 +12 x52 +12 x62 +14 x72 +23 x82 +23 x92 +35 x102 +32 x112 +23 x122
  +24 x132 +9 x142 +11 x152 +19 x162 +32 x172 +15 x182 +5 x192 +11 x202 -142 x2 <= +0
 c23: +12 x13 +22 x23 +10 x33 +6 x43 +12 x53 +12 x63 +14 x73 +23 x83 +23 x93 +35 x103 +32 x113 +23 x123
  +24 x133 +9 x143 +11 x153 +19 x163 +32 x173 +15 x183 +5 x193 +11 x203 -105 x3 <= +0
 c24: +12 x14 +22 x24 +10 x34 +6 x44 +12 x54 +12 x64 +14 x74 +23 x84 +23 x94 +35 x104 +32 x114 +23 x124
  +24 x134 +9 x144 +11 x154 +19 x164 +32 x174 +15 x184 +5 x194 +11 x204 -79 x4 <= +0
 c25: +12 x15 +22 x25 +10 x35 +6 x45 +12 x55 +12 x65 +14 x75 +23 x85 +23 x95 +35 x105 +32 x115 +23 x125
  +24 x135 +9 x145 +11 x155 +19 x165 +32 x175 +15 x185 +5 x195 +11 x205 -229 x5 <= +0
 c26: +12 x16 +22 x26 +10 x36 +6 x46 +12 x56 +12 x66 +14 x76 +23 x86 +23 x96 +35 x106 +32 x116 +23 x126
  +24 x136 +9 x146 +11 x156 +19 x166 +32 x176 +15 x186 +5 x196 +11 x206 -152 x6 <= +0
 c27: +12 x17 +22 x27 +10 x37 +6 x47 +12 x57 +12 x67 +14 x77 +23 x87 +23 x97 +35 x107 +32 x117 +23 x127
  +24 x137 +9 x147 +11 x157 +19 x167 +32 x177 +15 x187 +5 x197 +11 x207 -244 x7 <= +0
 c28: +12 x18 +22 x28 +10 x38 +6 x48 +12 x58 +12 x68 +14 x78 +23 x88 +23 x98 +35 x108 +32 x118 +23 x128
  +24 x138 +9 x148 +11 x158 +19 x168 +32 x178 +15 x188 +5 x198 +11 x208 -202 x8 <= +0
 c29: +12 x19 +22 x29 +10 x39 +6 x49 +12 x59 +12 x69 +14 x79 +23 x89 +23 x99 +35 x109 +32 x119 +23 x129
  +24 x139 +9 x149 +11 x159 +19 x169 +32 x179 +15 x189 +5 x199 +11 x209 -217 x9 <= +0
 c30: +177 x0 +201 x1 +142 x2 +105 x3 +79 x4 +229 x5 +152 x6 +244 x7 +202 x8 +217 x9 >= +350
 c31: +1 x10 -1 x0 <= +0
 c32: +1 x11 -1 x1 <= +0
 c33: +1 x12 -1 x2 <= +0
 c34: +1 x13 -1 x3 <= +0
 c35: +1 x14 -1 x4 <= +0
 c36: +1 x15 -1 x5 <= +0
 c37: +1 x16 -1 x6 <= +0
 c38: +1 x17 -1 x7 <= +0
 c39: +1 x18 -1 x8 <= +0
 c40: +1 x19 -1 x9 <= +0
 c41: +1 x20 -1 x0 <= +0
 c42: +1 x21 -1 x1 <= +0
 c43: +1 x22 -1 x2 <= +0
 c44: +1 x23 -1 x3 <= +0
 c45: +1 x24 -1 x4 <= +0
 c46: +1 x25 -1 x5 <= +0
 c47: +1 x26 -1 x6 <= +0
 c48: +1 x27 -1 x7 <= +0
 c49: +1 x28 -1 x8 <= +0
 c50: +1 x29 -1 x9 <= +0
 c51: +1 x30 -1 x0 <= +0
 c52: +1 x31 -1 x1 <= +0
 c53: +1 x32 -1 x2 <= +0
 c54: +1 x33 -1 x3 <= +0
 c55: +1 x34 -1 x4 <= +0
 c56: +1 x35 -1 x5 <= +0
 c57: +1 x36 -1 x6 <= +0
 c58: +1 x37 -1 x7 <= +0
 c59: +1 x38 -1 x8 <= +0
 c60: +1 x39 -1 x9 <= +0
 c61: +1 x40 -1 x0 <= +0
 c62: +1 x41 -1 x1 <= +0
 c63: +1 x42 -1 x2 <= +0
 c64: +1 x43 -1 x3 <= +0
 c65: +1 x44 -1 x4 <= +0
 c66: +1 x45 -1 x5 <= +0
 c67: +1 x46 -1 x6 <= +0
 c68: +1 x47 -1 x7 <= +0
 c69: +1 x48 -1 x8 <= +0
 c70: +1 x49 -1 x9 <= +0
 c71: +1 x50 -1 x0 <= +0
 c72: +1 x51 -1 x1 <= +0
 c73: +1 x52 -1 x2 <= +0
 c74: +1 x53 -1 x3 <= +0
 c75: +1 x54 -1 x4 <= +0
 c76: +1 x55 -1 x5 <= +0
 c77: +1 x56 -1 x6 <= +0
 c78: +1 x57 -1 x7 <= +0
 c79: +1 x58 -1 x8 <= +0
 c80: +1 x59 -1 x9 <= +0
 c81: +1 x60 -1 x0 <= +0
 c82: +1 x61 -1 x1 <= +0
 c83: +1 x62 -1 x2 <= +0
 c84: +1 x63 -1 x3 <= +0
 c85: +1 x64 -1 x4 <= +0
 c86: +1 x65 -1 x5 <= +0
 c87: +1 x66 -1 x6 <= +0
 c88: +1 x67 -1 x7 <= +0
 c89: +1 x68 -1 x8 <= +0
 c90: +1 x69 -1 x9 <= +0
 c91: +1 x70 -1 x0 <= +0
 c92: +1 x71 -1 x1 <= +0
 c93: +1 x72 -1 x2 <= +0
 c94: +1 x73 -1 x3 <= +0
 c95: +1 x74 -1 x4 <= +0
 c96: +1 x75 -1 x5 <= +0
 c97: +1 x76 -1 x6 <= +0
 c98: +1 x77 -1 x7 <= +0
 c99: +1 x78 -1 x8 <= +0
 c100: +1 x79 -1 x9 <= +0
 c101: +1 x80 -1 x0 <= +0
 c102: +1 x81 -1 x1 <= +0
 c103: +1 x82 -1 x2 <= +0
 c104: +1 x83 -1 x3 <= +0
 c105: +1 x84 -1 x4 <= +0
 c106: +1 x85 -1 x5 <= +0
 c107: +1 x86 -1 x6 <= +0
 c108: +1 x87 -1 x7 <= +0
 c109: +1 x88 -1 x8 <= +0
 c110: +1 x89 -1 x9 <= +0
 c111: +1 x90 -1 x0 <= +0
 c112: +1 x91 -1 x1 <= +0
 c113: +1 x92 -1 x2 <= +0
 c114: +1 x93 -1 x3 <= +0
 c115: +1 x94 -1 x4 <= +0
 c116: +1 x95 -1 x5 <= +0
 c117: +1 x96 -1 x6 <= +0
 c118: +1 x97 -1 x7 <= +0
 c119: +1 x98 -1 x8 <= +0
 c120: +1 x99 -1 x9 <= +0
 c121: +1 x100 -1 x0 <= +0
 c122: +1 x101 -1 x1 <= +0
 c123: +1 x102 -1 x2 <= +0
 c124: +1 x103 -1 x3 <= +0
 c125: +1 x104 -1 x4 <= +0
 c126: +1 x105 -1 x5 <= +0
 c127: +1 x106 -1 x6 <= +0
 c128: +1 x107 -1 x7 <= +0
 c129: +1 x108 -1 x8 <= +0
 c130: +1 x109 -1 x9 <= +0
 c131: +1 x110 -1 x0 <= +0
 c132: +1 x111 -1 x1 <= +0
 c133: +1 x112 -1 x2 <= +0
 c134: +1 x113 -1 x3 <= +0
 c135: +1 x114 -1 x4 <= +0
 c136: +1 x115 -1 x5 <= +0
 c137: +1 x116 -1 x6 <= +0
 c138: +1 x117 -1 x7 <= +0
 c139: +1 x118 -1 x8 <= +0
 c140: +1 x119 -1 x9 <= +0
 c141: +1 x120 -1 x0 <= +0
 c142: +1 x121 -1 x1 <= +0
 c143: +1 x122 -1 x2 <= +0
 c144: +1 x123 -1 x3 <= +0
 c145: +1 x124 -1 x4 <= +0
 c146: +1 x125 -1 x5 <= +0
 c147: +1 x126 -1 x6 <= +0
 c148: +1 x127 -1 x7 <= +0
 c149: +1 x128 -1 x8 <= +0
 c150: +1 x129 -1 x9 <= +0
 c151: +1 x130 -1 x0 <= +0
 c152: +1 x131 -1 x1 <= +0
 c153: +1 x132 -1 x2 <= +0
 c154: +1 x133 -1 x3 <= +0
 c155: +1 x134 -1 x4 <= +0
 c156: +1 x135 -1 x5 <= +0
 c157: +1 x136 -1 x6 <= +0
 c158: +1 x137 -1 x7 <= +0
 c159: +1 x138 -1 x8 <= +0
 c160: +1 x139 -1 x9 <= +0
 c161: +1 x140 -1 x0 <= +0
 c162: +1 x141 -1 x1 <= +0
 c163: +1 x142 -1 x2 <= +0
 c164: +1 x143 -1 x3 <= +0
 c165: +1 x144 -1 x4 <= +0
 c166: +1 x145 -1 x5 <= +0
 c167: +1 x146 -1 x6 <= +0
 c168: +1 x147 -1 x7 <= +0
 c169: +1 x148 -1 x8 <= +0
 c170: +1 x149 -1 x9 <= +0
 c171: +1 x150 -1 x0 <= +0
 c172: +1 x151 -1 x1 <= +0
 c173: +1 x152 -1 x2 <= +0
 c174: +1 x153 -1 x3 <= +0
 c175: +1 x154 -1 x4 <= +0
 c176: +1 x155 -1 x5 <= +0
 c177: +1 x156 -1 x6 <= +0
 c178: +1 x157 -1 x7 <= +0
 c179: +1 x158 -1 x8 <= +0
 c180: +1 x159 -1 x9 <= +0
 c181: +1 x160 -1 x0 <= +0
 c182: +1 x161 -1 x1 <= +0
 c183: +1 x162 -1 x2 <= +0
 c184: +1 x163 -1 x3 <= +0
 c185: +1 x164 -1 x4 <= +0
 c186: +1 x165 -1 x5 <= +0
 c187: +1 x166 -1 x6 <= +0
 c188: +1 x167 -1 x7 <= +0
 c189: +1 x168 -1 x8 <= +0
 c190: +1 x169 -1 x9 <= +0
 c191: +1 x170 -1 x0 <= +0
 c192: +1 x171 -1 x1 <= +0
 c193: +1 x172 -1 x2 <= +0
 c194: +1 x173 -1 x3 <= +0
 c195: +1 x174 -1 x4 <= +0
 c196: +1 x175 -1 x5 <= +0
 c197: +1 x176 -1 x6 <= +0
 c198: +1 x177 -1 x7 <= +0
 c199: +1 x178 -1 x8 <= +0
 c200: +1 x179 -1 x9 <= +0
 c201: +1 x180 -1 x0 <= +0
 c202: +1 x181 -1 x1 <= +0
 c203: +1 x182 -1 x2 <= +0
 c204: +1 x183 -1 x3 <= +0
 c205: +1 x184 -1 x4 <= +0
 c206: +1 x185 -1 x5 <= +0
 c207: +1 x186 -1 x6 <= +0
 c208: +1 x187 -1 x7 <= +0
 c209: +1 x188 -1 x8 <= +0
 c210: +1 x189 -1 x9 <= +0
 c211: +1 x190 -1 x0 <= +0
 c212: +1 x191 -1 x1 <= +0
 c213: +1 x192 -1 x2 <= +0
 c214: +1 x193 -1 x3 <= +0
 c215: +1 x194 -1 x4 <= +0
 c216: +1 x195 -1 x5 <= +0
 c217: +1 x196 -1 x6 <= +0
 c218: +1 x197 -1 x7 <= +0
 c219: +1 x198 -1 x8 <= +0
 c220: +1 x199 -1 x9 <= +0
 c221: +1 x200 -1 x0 <= +0
 c222: +1 x201 -1 x1 <= +0
 c223: +1 x202 -1 x2 <= +0
 c224: +1 x203 -1 x3 <= +0
 c225: +1 x204 -1 x4 <= +0
 c226: +1 x205 -1 x5 <= +0
 c227: +1 x206 -1 x6 <= +0
 c228: +1 x207 -1 x7 <= +0
 c229: +1 x208 -1 x8 <= +0
 c230: +1 x209 -1 x9 <= +0
Bounds
 0 <= x0 <= 1
 0 <= x1 <= 1
 0 <= x2 <= 1
 0 <= x3 <= 1
 0 <= x4 <= 1
 0 <= x5 <= 1
 0 <= x6 <= 1
 0 <= x7 <= 1
 0 <= x8 <= 1
 0 <= x9 <= 1
 0 <= x10 <= 1
 0 <= x11 <= 1
 0 <= x12 <= 1
 0 <= x13 <= 1
 0 <= x14 <= 1
 0 <= x15 <= 1
 0 <= x16 <= 1
 0 <= x17 <= 1
 0 <= x18 <= 1
 0 <= x19 <= 1
 0 <= x20 <= 1
 0 <= x21 <= 1
 0 <= x22 <= 1
 0 <= x23 <= 1
 0 <= x24 <= 1
 0 <= x25 <= 1
 0 <= x26 <= 1
 0 <= x27 <= 1
 0 <= x28 <= 1
 0 <= x29 <= 1
 0 <= x30 <= 1
 0 <= x31 <= 1
 0 <= x32 <= 1
 0 <= x33 <= 1
 0 <= x34 <= 1
 0 <= x35 <= 1
 0 <= x36 <= 1
 0 <= x37 <= 1
 0 <= x38 <= 1
 0 <= x39 <= 1
 0 <= x40 <= 1
 0 <= x41 <= 1
 0 <= x42 <= 1
 0 <= x43 <= 1
 0 <= x44 <= 1
 0 <= x45 <= 1
 0 <= x46 <= 1
 0 <= x47 <= 1
 0 <= x48 <= 1
 0 <= x49 <= 1
 0 <= x50 <= 1
 0 <= x51 <= 1
 0 <= x52 <= 1
 0 <= x53 <= 1
 0 <= x54 <= 1
 0 <= x55 <= 1
 0 <= x56 <= 1
 0 <= x57 <= 1
 0 <= x58 <= 1
 0 <= x59 <= 1
 0 <= x60 <= 1
 0 <= x61 <= 1
 0 <= x62 <= 1
 0 <= x63 <= 1
 0 <= x64 <= 1
 0 <= x65 <= 1
 0 <= x66 <= 1
 0 <= x67 <= 1
 0 <= x68 <= 1
 0 <= x69 <= 1
 0 <= x70 <= 1
 0 <= x71 <= 1
 0 <= x72 <= 1
 0 <= x73 <= 1
 0 <= x74 <= 1
 0 <= x75 <= 1
 0 <= x76 <= 1
 0 <= x77 <= 1
 0 <= x78 <= 1
 0 <= x79 <= 1
 0 <= x80 <= 1
 0 <= x81 <= 1
 0 <= x82 <= 1
 0 <= x83 <= 1
 0 <= x84 <= 1
 0 <= x85 <= 1
 0 <= x86 <= 1
 0 <= x87 <= 1
 0 <= x88 <= 1
 0 <= x89 <= 1
 0 <= x90 <= 1
 0 <= x91 <= 1
 0 <= x92 <= 1
 0 <= x93 <= 1
 0 <= x94 <= 1
 0 <= x95 <= 1
 0 <= x96 <= 1
 0 <= x97 <= 1
 0 <= x98 <= 1
 0 <= x99 <= 1
 0 <= x100 <= 1
 0 <= x101 <= 1
 0 <= x102 <= 1
 0 <= x103 <= 1
 0 <= x104 <= 1
 0 <= x105 <= 1
 0 <= x106 <= 1
 0 <= x107 <= 1
 0 <= x108 <= 1
 0 <= x109 <= 1
 0 <= x110 <= 1
 0 <= x111 <= 1
 0 <= x112 <= 1
 0 <= x113 <= 1
 0 <= x114 <= 1
 0 <= x115 <= 1
 0 <= x116 <= 1
 0 <= x117 <= 1
 0 <= x118 <= 1
 0 <= x119 <= 1
 0 <= x120 <= 1
 0 <= x121 <= 1
 0 <= x122 <= 1
 0 <= x123 <= 1
 0 <= x124 <= 1
 0 <= x125 <= 1
 0 <= x126 <= 1
 0 <= x127 <= 1
 0 <= x128 <= 1
 0 <= x129 <= 1
 0 <= x130 <= 1
 0 <= x131 <= 1
 0 <= x132 <= 1
 0 <= x133 <= 1
 0 <= x134 <= 1
 0 <= x135 <= 1
 0 <= x136 <= 1
 0 <= x137 <= 1
 0 <= x138 <= 1
 0 <= x139 <= 1
 0 <= x140 <= 1
 0 <= x141 <= 1
 0 <= x142 <= 1
 0 <= x143 <= 1
 0 <= x144 <= 1
 0 <= x145 <= 1
 0 <= x146 <= 1
 0 <= x147 <= 1
 0 <= x148 <= 1
 0 <= x149 <= 1
 0 <= x150 <= 1
 0 <= x151 <= 1
 0 <= x152 <= 1
 0 <= x153 <= 1
 0 <= x154 <= 1
 0 <= x155 <= 1
 0 <= x156 <= 1
 0 <= x157 <= 1
 0 <= x158 <= 1
 0 <= x159 <= 1
 0 <= x160 <= 1
 0 <= x161 <= 1
 0 <= x162 <= 1
 0 <= x163 <= 1
 0 <= x164 <= 1
 0 <= x165 <= 1
 0 <= x166 <= 1
 0 <= x167 <= 1
 0 <= x168 <= 1
 0 <= x169 <= 1
 0 <= x170 <= 1
 0 <= x171 <= 1
 0 <= x172 <= 1
 0 <= x173 <= 1
 0 <= x174 <= 1
 0 <= x175 <= 1
 0 <= x176 <= 1
 0 <= x177 <= 1
 0 <= x178 <= 1
 0 <= x179 <= 1
 0 <= x180 <= 1
 0 <= x181 <= 1
 0 <= x182 <= 1
 0 <= x183 <= 1
 0 <= x184 <= 1
 0 <= x185 <= 1
 0 <= x186 <= 1
 0 <= x187 <= 1
 0 <= x188 <= 1
 0 <= x189 <= 1
 0 <= x190 <= 1
 0 <= x191 <= 1
 0 <= x192 <= 1
 0 <= x193 <= 1
 0 <= x194 <= 1
 0 <= x195 <= 1
 0 <= x196 <= 1
 0 <= x197 <= 1
 0 <= x198 <= 1
 0 <= x199 <= 1
 0 <= x200 <= 1
 0 <= x201 <= 1
 0 <= x202 <= 1
 0 <= x203 <= 1
 0 <= x204 <= 1
 0 <= x205 <= 1
 0 <= x206 <= 1
 0 <= x207 <= 1
 0 <= x208 <= 1
 0 <= x209 <= 1
Binaries
 x0 x1 x2 x3 x4 x5 x6 x7 x8 x9 x10 x11 x12 x13 x14 x15 x16 x17 x18 x19 x20 x21 x22 x23 x24 x25 x26 x27
 x28 x29 x30 x31 x32 x33 x34 x35 x36 x37 x38 x39 x40 x41 x42 x43 x44 x45 x46 x47 x48 x49 x50 x51 x52 x53
 x54 x55 x56 x57 x58 x59 x60 x61 x62 x63 x64 x65 x66 x67 x68 x69 x70 x71 x72 x73 x74 x75 x76 x77 x78 x79
 x80 x81 x82 x83 x84 x85 x86 x87 x88 x89 x90 x91 x92 x93 x94 x95 x96 x97 x98 x99 x100 x101 x102 x103 x104
 x105 x106 x107 x108 x109 x110 x111 x112 x113 x114 x115 x116 x117 x118 x119 x120 x121 x122 x123 x124 x125
 x126 x127 x128 x129 x130 x131 x132 x133 x134 x135 x136 x137 x138 x139 x140 x141 x142 x143 x144 x145 x146
 x147 x148 x149 x150 x151 x152 x153 x154 x155 x156 x157 x158 x159 x160 x161 x162 x163 x164 x165 x166 x167
 x168 x169 x170 x171 x172 x173 x174 x175 x176 x177 x178 x179 x180 x181 x182 x183 x184 x185 x186 x187 x188
 x189 x190 x191 x192 x193 x194 x195 x196 x197 x198 x199 x200 x201 x202 x203 x204 x205 x206 x207 x208 x209
End
